p cnf 50 10
x 1 2 3 -8 9 -10 12 -15 20 -22 25 -26 27 28 29 -30 -31 -32 -33 -39 -42 45 46 48 -50 0
x -2 -3 -6 7 8 9 -12 14 15 -16 17 -18 -20 -21 23 -24 26 28 -29 32 33 34 35 37 -38 39 -41 -43 -44 45 -49 0
x 2 -4 -5 6 10 11 14 15 -17 18 -21 22 -23 -26 30 31 32 33 34 -37 40 -48 -49 50 0
x -2 -3 4 5 10 -13 -15 -19 -20 -22 -23 -24 26 -29 -32 -35 -36 -37 38 -40 41 42 -44 45 47 -48 0
x -1 -2 -7 12 -14 -15 -16 -19 23 25 26 27 29 -30 -33 -34 -37 -39 40 41 42 -43 45 -47 -48 -49 50 0
x -2 -6 -7 8 9 -10 17 19 22 27 -29 32 36 37 38 40 42 -44 -45 46 -48 -50 0
x -2 -4 -5 6 -7 -8 -9 10 -11 -12 13 -14 -18 19 -20 -21 -22 -23 24 25 -26 -27 -28 -29 30 34 -37 38 -41 -43 -44 47 -48 49 50 0
x -1 -2 -5 6 -8 10 -11 -12 -15 -17 19 20 22 25 -27 28 -29 31 -32 33 34 -35 37 -38 -41 42 44 -45 47 -50 0
x 1 3 -4 5 7 8 9 -14 -15 -16 -17 18 -21 22 -24 26 27 -30 -33 -34 -36 38 39 -41 -43 -46 -49 0
x -1 -3 4 7 -13 -16 -17 18 19 24 25 -28 29 -30 31 -36 40 42 -43 -45 46 -47 -49 50 0
g -10